$comment
molecule: c2h6os 
basis: aCT/T/D 
edge: o 
$end

$molecule
0 1
S       -0.000001    0.232169   -0.446822
C       -1.330149   -0.799770    0.184043
C        1.330149   -0.799770    0.184040
H       -2.257664   -0.292990   -0.051734
H       -1.214715   -0.877868    1.259777
H       -1.305844   -1.774520   -0.291125
H        2.257665   -0.292987   -0.051737
H        1.305846   -1.774519   -0.291130
H        1.214716   -0.877870    1.259774
O        0.000000    1.471662    0.388354
$end

$rem
method = eom-ccsd
basis = gen 
print_general_basis = true 
cvs_ee_states = [2] 
purecart = 1111 
n_frozen_core = 6 
cc_trans_prop = true 
cc_memory = 40000 
eom_davidson_convergence = 4 
eom_shift = 19000 
$end

$basis
****
O     0 
aug-cc-pCVTZ
****
S     0 
aug-cc-pCVTZ
****
H     0
cc-pVDZ
****
C     0
cc-pVTZ
****
$end

