$comment
molecule: hno 
basis: 6-311++G** 
edge: o 
$end

$molecule
0 1
 N     0.000000     0.147695     0.628825
 O     0.000000    -0.074056    -0.567478
 H     0.000000    -0.775910     1.123303
$end

$rem
method = eom-ccsd
basis = 6-311++G** 
print_general_basis = true 
cvs_ee_states = [2,2] 
n_frozen_core = 1 
cc_trans_prop = true 
cc_memory = 40000 
eom_davidson_convergence = 4 
eom_shift = 19000 
$end

