$comment
molecule: n2o 
basis: 6-311++G** 
edge: n 
$end

$molecule
0 1
N          0.00000        0.00000       -1.21202
N          0.00000        0.00000       -0.06157
O          0.00000        0.00000        1.11439
$end

$rem
method = eom-ccsd
basis = 6-311++G** 
print_general_basis = true 
cvs_ee_states = [5,5,5,5] 
n_frozen_core = 3 
cc_trans_prop = true 
cc_memory = 40000 
eom_davidson_convergence = 4 
eom_shift = 14000 
$end

