$comment
molecule: ch2o 
basis: 6-311++G** 
edge: o 
$end

$molecule
0 1
 C     0.000000    0.000000   -0.531273
 O     0.000000    0.000000    0.676162
 H     0.000000    0.930533   -1.110830
 H     0.000000   -0.930533   -1.110830
$end

$rem
method = eom-ccsd
basis = 6-311++G** 
print_general_basis = true 
cvs_ee_states = [2,0,2,2] 
n_frozen_core = 1 
cc_trans_prop = true 
cc_memory = 40000 
eom_davidson_convergence = 4 
eom_shift = 19000 
$end

