$molecule
0 1
C        1.177486    0.000023   -0.000002
C       -0.273165    0.000010    0.000004
H        1.548020   -0.161944    1.005172
H        1.548063    0.951467   -0.362388
H        1.548045   -0.789672   -0.642775
N       -1.438579   -0.000006   -0.000004
$end

$rem
method				cvs-adc(2)-x
ee_singlets			10
basis				mixed
purecart			1111
cc_symmetry			false
symmetry			false
threads				30
mem_total			90000
mem_static			2000
adc_davidson_maxsubspace	200
adc_davidson_maxiter		500
cc_rest_occ			3
$end

$basis
****
C     1 
cc-pVTZ
****
C     2 
aug-cc-pVTZ
****
H     3
cc-pVDZ
****
H     4 
cc-pVDZ
****
H     5
cc-pVDZ
****
N     6 
aug-cc-pVTZ
****
$end
