$molecule
0 1
 C     0.000000     0.000000    -0.663984
 C     0.000000     0.000000     0.663984
 H     0.000000     0.919796    -1.223061
 H     0.000000    -0.919796    -1.223061
 H     0.000000     0.919796     1.223061
 H     0.000000    -0.919796     1.223061
$end

$rem
method				cvs-adc(2)-x
ee_singlets			10
basis				gen
purecart			1111
cc_symmetry			false
symmetry			false
threads				30
mem_total			80000
mem_static			2000
adc_davidson_maxsubspace	200
adc_davidson_maxiter		500
cc_rest_occ			2
$end

$basis
****
C     0 
aug-cc-pVTZ
****
H     0 
cc-pVDZ
****
$end
