$molecule
0 1
 C     0.000000    -1.442144     0.000000
 C     0.000000    -0.125840     0.000000
 F    -1.075597     0.629115     0.000000
 H     0.933612    -1.965044     0.000000
 H    -0.933612    -1.965044     0.000000
 F     1.075597     0.629115     0.000000
$end

$rem
method				cvs-adc(2)-x
ee_singlets			10
basis				gen
purecart			1111
cc_symmetry			false
symmetry			false
threads				30
mem_total			80000
mem_static			2000
adc_davidson_maxsubspace	200
adc_davidson_maxiter		500
cc_rest_occ			4
$end

$basis
****
C     0 
aug-cc-pVTZ
****
H     0 
cc-pVDZ
****
F     0 
cc-pVTZ
****
$end
