$comment
molecule: acetonitrile 
basis: aCQ/Q/Q 
edge: carbon 
$end

$molecule
0 1
C        1.177486    0.000023   -0.000002
C       -0.273165    0.000010    0.000004
H        1.548020   -0.161944    1.005172
H        1.548063    0.951467   -0.362388
H        1.548045   -0.789672   -0.642775
N       -1.438579   -0.000006   -0.000004
$end

$rem
method = eom-ccsd
basis = mixed 
cvs_ee_states              [4] 
basis                      mixed 
purecart                   1111 
n_frozen_core              fc 
cc_trans_prop              true 
cc_memory                  40000 
eom_davidson_convergence   4 
eom_shift                  10000 
$end

