$molecule
0 1
O        0.000000    0.000000    0.447337
O       -0.000000    1.089161   -0.223668
O       -0.000000   -1.089161   -0.223668
$end

$rem
method				cvs-adc(2)-x
ee_singlets			10
basis				gen
purecart			1111
cc_symmetry			false
symmetry			false
threads				30
mem_total			90000
mem_static			2000
adc_davidson_maxsubspace	200
adc_davidson_maxiter		500
cc_rest_occ			3
$end

$basis
****
O     0 
aug-cc-pVTZ
****
$end
