$comment
molecule: o3 
basis: 6-311++G** 
edge: o 
$end

$molecule
0 1
O        0.000000    0.000000    0.447337
O       -0.000000    1.089161   -0.223668
O       -0.000000   -1.089161   -0.223668
$end

$rem
method = eom-ccsd
basis = 6-311++G** 
print_general_basis = true 
cvs_ee_states = [2,0,2,2] 
n_frozen_core = 3 
cc_trans_prop = true 
cc_memory = 40000 
eom_davidson_convergence = 4 
eom_shift = 19000 
$end

